; benchmark generated from python API
(set-info :status unknown)
(declare-datatypes ((IntState 0)) (((Mk1 (val1 Int)) (Mk2 (val2 Int)))))
 (declare-fun c_main_~j~6 () Int)
(declare-fun c_main_~k~6 () Int)
(declare-fun c_main_~i~6 () Int)
(assert
 (let (($x133 (exists ((v_nnf_88_st IntState) (val!128 Int) )(let (($x40 (and (<= c_main_~k~6 (+ (val2 v_nnf_88_st) 2)) (<= 4 (val2 v_nnf_88_st)) (<= (+ (* 2 (val2 v_nnf_88_st)) 1) c_main_~j~6))))
 (let (($x52 (not (= v_nnf_88_st (Mk1 val!128)))))
 (and $x52 $x40))))
 ))
 (let (($x136 (<= 1 c_main_~i~6)))
 (let (($x164 (<= 0 c_main_~i~6)))
 (let (($x159 (<= 2 c_main_~i~6)))
 (let ((?x162 (* 2 c_main_~i~6)))
 (let (($x158 (<= ?x162 c_main_~j~6)))
 (let (($x176 (<= 4 c_main_~i~6)))
 (let (($x71 (<= (+ ?x162 1) c_main_~j~6)))
 (let (($x69 (<= 3 c_main_~i~6)))
 (let (($x26 (exists ((main_~i~6 Int) )(let (($x95 (<= (+ (* 2 main_~i~6) 1) c_main_~j~6)))
 (let (($x149 (<= 4 main_~i~6)))
 (and (<= c_main_~k~6 main_~i~6) $x149 $x95))))
 ))
 (and (and $x69 $x71 $x176 $x158 $x159 $x164 $x136 $x26) (not (and $x69 $x71 $x176 $x158 $x159 $x164 $x136 $x133))))))))))))))
(check-sat)
